c Sudoku solution
p cnf 729 0
115 0
144 0
187 0
216 0
259 0
275 0
282 0
333 0
352 0
365 0
374 0
486 0
497 0
551 0
564 0
578 0
618 0
646 0
396 0
735 0
742 0
813 0
867 0
657 0
917 0
777 0
929 0
943 0
955 0
512 0
711 0
319 0
414 0
199 0
639 0
431 0
132 0
822 0
694 0
992 0
291 0
173 0
388 0
263 0
453 0
662 0
472 0
589 0
425 0
623 0
545 0
593 0
671 0
685 0
976 0
879 0
769 0
449 0
468 0
166 0
341 0
158 0
247 0
121 0
327 0
526 0
537 0
836 0
756 0
854 0
895 0
848 0
961 0
881 0
783 0
984 0
798 0
724 0
938 0
228 0
234 0
